networks/zoo_20_54/zoo_20_54-lower.txt
Number of groups: 9
Flow 7: {1 8 0} {8 3 0} {3 9 0} {9 19 0} 
Flow 12: {2 3 0} {3 7 0} {7 6 0} {6 16 0} 
Flow 13: {7 17 0} 
Flow 28: {4 3 0} {3 5 0} {5 15 0} 
Flow 33: {5 3 0} {3 8 0} {8 18 0} 
Flow 34: {6 7 0} {7 3 0} {3 2 0} {2 12 0} 
Flow 45: {8 1 0} {1 11 0} 
Flow 52: {9 3 0} {3 10 0} {10 20 0} 
Flow 53: {10 3 0} {3 13 0} 
Time taken running everything: 0 seconds
