networks/zoo_20_54/zoo_20_54-lower.sol
<?xml version = "1.0" encoding="UTF-8" standalone="yes"?>
<CPLEXSolution version="1.2">
 <header
   problemName="networks/zoo_20_54/zoo_20_54-lower.lp"
   solutionName="incumbent"
   solutionIndex="-1"
   objectiveValue="9"
   solutionTypeValue="3"
   solutionTypeString="primal"
   solutionStatusValue="101"
   solutionStatusString="integer optimal solution"
   solutionMethodString="mip"
   primalFeasible="1"
   dualFeasible="1"
   MIPNodes="0"
   MIPIterations="0"
   writeLevel="3"/>
 <quality
   epInt="1.0000000000000001e-05"
   epRHS="9.9999999999999995e-07"
   maxIntInfeas="0"
   maxPrimalInfeas="0"
   maxX="1"
   maxSlack="1"/>
 <variables>
  <variable name="Y(1,2)" index="1" value="1"/>
  <variable name="Y(2,3)" index="21" value="1"/>
  <variable name="Y(3,5)" index="42" value="1"/>
  <variable name="Y(4,6)" index="62" value="1"/>
  <variable name="Y(5,7)" index="82" value="1"/>
  <variable name="Y(6,8)" index="102" value="1"/>
  <variable name="Y(7,9)" index="122" value="1"/>
  <variable name="Y(8,10)" index="142" value="1"/>
  <variable name="Y(9,1)" index="152" value="1"/>
  <variable name="X(1,8,1)" index="1026" value="1"/>
  <variable name="X(1,11,9)" index="1088" value="1"/>
  <variable name="X(2,3,9)" index="1142" value="1"/>
  <variable name="X(2,12,1)" index="1188" value="1"/>
  <variable name="X(3,2,1)" index="1242" value="1"/>
  <variable name="X(3,5,3)" index="1298" value="1"/>
  <variable name="X(3,7,4)" index="1353" value="1"/>
  <variable name="X(3,8,9)" index="1412" value="1"/>
  <variable name="X(3,9,7)" index="1464" value="1"/>
  <variable name="X(3,10,8)" index="1519" value="1"/>
  <variable name="X(3,13,2)" index="1567" value="1"/>
  <variable name="X(4,3,25)" index="1644" value="1"/>
  <variable name="X(5,3,31)" index="1704" value="1"/>
  <variable name="X(5,15,3)" index="1730" value="1"/>
  <variable name="X(6,7,34)" index="1815" value="1"/>
  <variable name="X(6,16,4)" index="1839" value="1"/>
  <variable name="X(7,3,34)" index="1923" value="1"/>
  <variable name="X(7,6,4)" index="1947" value="1"/>
  <variable name="X(7,17,5)" index="2002" value="1"/>
  <variable name="X(8,1,9)" index="2060" value="1"/>
  <variable name="X(8,3,1)" index="2106" value="1"/>
  <variable name="X(8,18,6)" index="2165" value="1"/>
  <variable name="X(9,3,49)" index="2262" value="1"/>
  <variable name="X(9,19,7)" index="2274" value="1"/>
  <variable name="X(10,3,53)" index="2374" value="1"/>
  <variable name="X(10,20,8)" index="2383" value="1"/>
 </variables>
</CPLEXSolution>
